letting n_nurses=25
letting n_days=7
letting n_shift_types=4
letting max_covers=7
letting t_covers=87
letting covers=[2,6,7,0,7,3,6,0,6,7,3,0,4,2,4,0,1,5,3,0,5,4,2,0,4,4,2,0]
letting prefes=[4,4,4,4,2,1,2,2,2,1,2,2,2,1,2,2,2,1,2,2,4,4,4,4,2,1,2,2,4,4,4,4,2,1,2,2,2,1,2,2,2,1,2,2,2,1,2,2,4,4,4,4,2,1,2,2,1,4,4,4,1,1,1,1,1,1,1,1,1,1,1,1,1,1,1,1,1,4,4,4,1,1,1,1,1,4,4,4,2,1,2,2,2,1,2,2,2,1,2,2,2,1,2,2,1,4,4,4,2,1,2,2,1,4,4,4,2,1,1,1,2,1,1,1,2,1,1,1,2,1,1,1,1,4,4,4,2,1,1,1,1,4,4,4,2,2,2,2,2,2,2,2,2,2,2,2,2,2,2,2,1,4,4,4,2,2,2,2,1,4,4,4,2,1,2,2,2,1,2,2,2,1,2,2,2,1,2,2,1,4,4,4,2,1,2,2,1,4,4,4,2,1,2,2,2,1,2,2,2,1,2,2,2,1,2,2,1,4,4,4,2,1,2,2,1,1,1,1,2,1,2,2,2,1,2,2,2,1,2,2,2,1,2,2,1,1,1,1,2,1,2,2,1,4,4,4,2,1,2,2,2,1,2,2,2,1,2,2,2,1,2,2,1,4,4,4,2,1,2,2,1,4,4,4,1,1,1,1,1,1,1,1,1,1,1,1,1,1,1,1,1,4,4,4,1,1,1,1,1,4,4,4,2,1,1,1,2,1,1,1,2,1,1,1,2,1,1,1,1,4,4,4,2,1,1,1,4,4,1,1,2,1,2,2,2,1,2,2,2,1,2,2,2,1,2,2,4,4,1,1,2,1,2,2,1,1,1,1,1,2,1,1,1,2,1,1,1,2,1,1,1,2,1,1,1,1,1,1,1,2,1,1,4,1,4,4,2,1,2,2,2,1,2,2,2,1,2,2,2,1,2,2,4,1,4,4,2,1,2,2,1,1,1,1,2,1,2,2,2,1,2,2,2,1,2,2,2,1,2,2,1,1,1,1,2,1,2,2,1,4,4,4,2,1,2,2,2,1,2,2,2,1,2,2,2,1,2,2,1,4,4,4,2,1,2,2,1,4,1,1,2,1,2,2,2,1,2,2,2,1,2,2,2,1,2,2,1,4,1,1,2,1,2,2,1,4,4,4,2,2,2,2,2,2,2,2,2,2,2,2,2,2,2,2,1,4,4,4,2,2,2,2,1,4,4,4,1,1,2,2,1,1,2,2,1,1,2,2,1,1,2,2,1,4,4,4,1,1,2,2,1,4,4,4,2,2,2,2,2,2,2,2,2,2,2,2,2,2,2,2,1,4,4,4,2,2,2,2,1,4,4,4,2,1,2,2,2,1,2,2,2,1,2,2,2,1,2,2,1,4,4,4,2,1,2,2,4,4,4,4,2,2,2,2,2,2,2,2,2,2,2,2,2,2,2,2,4,4,4,4,2,2,2,2,1,1,4,4,2,1,2,2,2,1,2,2,2,1,2,2,2,1,2,2,1,1,4,4,2,1,2,2,1,4,4,4,1,1,2,2,1,1,2,2,1,1,2,2,1,1,2,2,1,4,4,4,1,1,2,2]
letting ub =  292
